p cnf 1000 1998
00001 00002 0
-00001 -00002 0
00001 00003 0
-00001 -00003 0
00001 00004 0
-00001 -00004 0
00001 00005 0
-00001 -00005 0
00001 00006 0
-00001 -00006 0
00001 00007 0
-00001 -00007 0
00001 00008 0
-00001 -00008 0
00001 00009 0
-00001 -00009 0
00001 00010 0
-00001 -00010 0
00001 00011 0
-00001 -00011 0
00001 00012 0
-00001 -00012 0
00001 00013 0
-00001 -00013 0
00001 00014 0
-00001 -00014 0
00001 00015 0
-00001 -00015 0
00001 00016 0
-00001 -00016 0
00001 00017 0
-00001 -00017 0
00001 00018 0
-00001 -00018 0
00001 00019 0
-00001 -00019 0
00001 00020 0
-00001 -00020 0
00001 00021 0
-00001 -00021 0
00001 00022 0
-00001 -00022 0
00001 00023 0
-00001 -00023 0
00001 00024 0
-00001 -00024 0
00001 00025 0
-00001 -00025 0
00001 00026 0
-00001 -00026 0
00001 00027 0
-00001 -00027 0
00001 00028 0
-00001 -00028 0
00001 00029 0
-00001 -00029 0
00001 00030 0
-00001 -00030 0
00001 00031 0
-00001 -00031 0
00001 00032 0
-00001 -00032 0
00001 00033 0
-00001 -00033 0
00001 00034 0
-00001 -00034 0
00001 00035 0
-00001 -00035 0
00001 00036 0
-00001 -00036 0
00001 00037 0
-00001 -00037 0
00001 00038 0
-00001 -00038 0
00001 00039 0
-00001 -00039 0
00001 00040 0
-00001 -00040 0
00001 00041 0
-00001 -00041 0
00001 00042 0
-00001 -00042 0
00001 00043 0
-00001 -00043 0
00001 00044 0
-00001 -00044 0
00001 00045 0
-00001 -00045 0
00001 00046 0
-00001 -00046 0
00001 00047 0
-00001 -00047 0
00001 00048 0
-00001 -00048 0
00001 00049 0
-00001 -00049 0
00001 00050 0
-00001 -00050 0
00001 00051 0
-00001 -00051 0
00001 00052 0
-00001 -00052 0
00001 00053 0
-00001 -00053 0
00001 00054 0
-00001 -00054 0
00001 00055 0
-00001 -00055 0
00001 00056 0
-00001 -00056 0
00001 00057 0
-00001 -00057 0
00001 00058 0
-00001 -00058 0
00001 00059 0
-00001 -00059 0
00001 00060 0
-00001 -00060 0
00001 00061 0
-00001 -00061 0
00001 00062 0
-00001 -00062 0
00001 00063 0
-00001 -00063 0
00001 00064 0
-00001 -00064 0
00001 00065 0
-00001 -00065 0
00001 00066 0
-00001 -00066 0
00001 00067 0
-00001 -00067 0
00001 00068 0
-00001 -00068 0
00001 00069 0
-00001 -00069 0
00001 00070 0
-00001 -00070 0
00001 00071 0
-00001 -00071 0
00001 00072 0
-00001 -00072 0
00001 00073 0
-00001 -00073 0
00001 00074 0
-00001 -00074 0
00001 00075 0
-00001 -00075 0
00001 00076 0
-00001 -00076 0
00001 00077 0
-00001 -00077 0
00001 00078 0
-00001 -00078 0
00001 00079 0
-00001 -00079 0
00001 00080 0
-00001 -00080 0
00001 00081 0
-00001 -00081 0
00001 00082 0
-00001 -00082 0
00001 00083 0
-00001 -00083 0
00001 00084 0
-00001 -00084 0
00001 00085 0
-00001 -00085 0
00001 00086 0
-00001 -00086 0
00001 00087 0
-00001 -00087 0
00001 00088 0
-00001 -00088 0
00001 00089 0
-00001 -00089 0
00001 00090 0
-00001 -00090 0
00001 00091 0
-00001 -00091 0
00001 00092 0
-00001 -00092 0
00001 00093 0
-00001 -00093 0
00001 00094 0
-00001 -00094 0
00001 00095 0
-00001 -00095 0
00001 00096 0
-00001 -00096 0
00001 00097 0
-00001 -00097 0
00001 00098 0
-00001 -00098 0
00001 00099 0
-00001 -00099 0
00001 00100 0
-00001 -00100 0
00001 00101 0
-00001 -00101 0
00001 00102 0
-00001 -00102 0
00001 00103 0
-00001 -00103 0
00001 00104 0
-00001 -00104 0
00001 00105 0
-00001 -00105 0
00001 00106 0
-00001 -00106 0
00001 00107 0
-00001 -00107 0
00001 00108 0
-00001 -00108 0
00001 00109 0
-00001 -00109 0
00001 00110 0
-00001 -00110 0
00001 00111 0
-00001 -00111 0
00001 00112 0
-00001 -00112 0
00001 00113 0
-00001 -00113 0
00001 00114 0
-00001 -00114 0
00001 00115 0
-00001 -00115 0
00001 00116 0
-00001 -00116 0
00001 00117 0
-00001 -00117 0
00001 00118 0
-00001 -00118 0
00001 00119 0
-00001 -00119 0
00001 00120 0
-00001 -00120 0
00001 00121 0
-00001 -00121 0
00001 00122 0
-00001 -00122 0
00001 00123 0
-00001 -00123 0
00001 00124 0
-00001 -00124 0
00001 00125 0
-00001 -00125 0
00001 00126 0
-00001 -00126 0
00001 00127 0
-00001 -00127 0
00001 00128 0
-00001 -00128 0
00001 00129 0
-00001 -00129 0
00001 00130 0
-00001 -00130 0
00001 00131 0
-00001 -00131 0
00001 00132 0
-00001 -00132 0
00001 00133 0
-00001 -00133 0
00001 00134 0
-00001 -00134 0
00001 00135 0
-00001 -00135 0
00001 00136 0
-00001 -00136 0
00001 00137 0
-00001 -00137 0
00001 00138 0
-00001 -00138 0
00001 00139 0
-00001 -00139 0
00001 00140 0
-00001 -00140 0
00001 00141 0
-00001 -00141 0
00001 00142 0
-00001 -00142 0
00001 00143 0
-00001 -00143 0
00001 00144 0
-00001 -00144 0
00001 00145 0
-00001 -00145 0
00001 00146 0
-00001 -00146 0
00001 00147 0
-00001 -00147 0
00001 00148 0
-00001 -00148 0
00001 00149 0
-00001 -00149 0
00001 00150 0
-00001 -00150 0
00001 00151 0
-00001 -00151 0
00001 00152 0
-00001 -00152 0
00001 00153 0
-00001 -00153 0
00001 00154 0
-00001 -00154 0
00001 00155 0
-00001 -00155 0
00001 00156 0
-00001 -00156 0
00001 00157 0
-00001 -00157 0
00001 00158 0
-00001 -00158 0
00001 00159 0
-00001 -00159 0
00001 00160 0
-00001 -00160 0
00001 00161 0
-00001 -00161 0
00001 00162 0
-00001 -00162 0
00001 00163 0
-00001 -00163 0
00001 00164 0
-00001 -00164 0
00001 00165 0
-00001 -00165 0
00001 00166 0
-00001 -00166 0
00001 00167 0
-00001 -00167 0
00001 00168 0
-00001 -00168 0
00001 00169 0
-00001 -00169 0
00001 00170 0
-00001 -00170 0
00001 00171 0
-00001 -00171 0
00001 00172 0
-00001 -00172 0
00001 00173 0
-00001 -00173 0
00001 00174 0
-00001 -00174 0
00001 00175 0
-00001 -00175 0
00001 00176 0
-00001 -00176 0
00001 00177 0
-00001 -00177 0
00001 00178 0
-00001 -00178 0
00001 00179 0
-00001 -00179 0
00001 00180 0
-00001 -00180 0
00001 00181 0
-00001 -00181 0
00001 00182 0
-00001 -00182 0
00001 00183 0
-00001 -00183 0
00001 00184 0
-00001 -00184 0
00001 00185 0
-00001 -00185 0
00001 00186 0
-00001 -00186 0
00001 00187 0
-00001 -00187 0
00001 00188 0
-00001 -00188 0
00001 00189 0
-00001 -00189 0
00001 00190 0
-00001 -00190 0
00001 00191 0
-00001 -00191 0
00001 00192 0
-00001 -00192 0
00001 00193 0
-00001 -00193 0
00001 00194 0
-00001 -00194 0
00001 00195 0
-00001 -00195 0
00001 00196 0
-00001 -00196 0
00001 00197 0
-00001 -00197 0
00001 00198 0
-00001 -00198 0
00001 00199 0
-00001 -00199 0
00001 00200 0
-00001 -00200 0
00001 00201 0
-00001 -00201 0
00001 00202 0
-00001 -00202 0
00001 00203 0
-00001 -00203 0
00001 00204 0
-00001 -00204 0
00001 00205 0
-00001 -00205 0
00001 00206 0
-00001 -00206 0
00001 00207 0
-00001 -00207 0
00001 00208 0
-00001 -00208 0
00001 00209 0
-00001 -00209 0
00001 00210 0
-00001 -00210 0
00001 00211 0
-00001 -00211 0
00001 00212 0
-00001 -00212 0
00001 00213 0
-00001 -00213 0
00001 00214 0
-00001 -00214 0
00001 00215 0
-00001 -00215 0
00001 00216 0
-00001 -00216 0
00001 00217 0
-00001 -00217 0
00001 00218 0
-00001 -00218 0
00001 00219 0
-00001 -00219 0
00001 00220 0
-00001 -00220 0
00001 00221 0
-00001 -00221 0
00001 00222 0
-00001 -00222 0
00001 00223 0
-00001 -00223 0
00001 00224 0
-00001 -00224 0
00001 00225 0
-00001 -00225 0
00001 00226 0
-00001 -00226 0
00001 00227 0
-00001 -00227 0
00001 00228 0
-00001 -00228 0
00001 00229 0
-00001 -00229 0
00001 00230 0
-00001 -00230 0
00001 00231 0
-00001 -00231 0
00001 00232 0
-00001 -00232 0
00001 00233 0
-00001 -00233 0
00001 00234 0
-00001 -00234 0
00001 00235 0
-00001 -00235 0
00001 00236 0
-00001 -00236 0
00001 00237 0
-00001 -00237 0
00001 00238 0
-00001 -00238 0
00001 00239 0
-00001 -00239 0
00001 00240 0
-00001 -00240 0
00001 00241 0
-00001 -00241 0
00001 00242 0
-00001 -00242 0
00001 00243 0
-00001 -00243 0
00001 00244 0
-00001 -00244 0
00001 00245 0
-00001 -00245 0
00001 00246 0
-00001 -00246 0
00001 00247 0
-00001 -00247 0
00001 00248 0
-00001 -00248 0
00001 00249 0
-00001 -00249 0
00001 00250 0
-00001 -00250 0
00001 00251 0
-00001 -00251 0
00001 00252 0
-00001 -00252 0
00001 00253 0
-00001 -00253 0
00001 00254 0
-00001 -00254 0
00001 00255 0
-00001 -00255 0
00001 00256 0
-00001 -00256 0
00001 00257 0
-00001 -00257 0
00001 00258 0
-00001 -00258 0
00001 00259 0
-00001 -00259 0
00001 00260 0
-00001 -00260 0
00001 00261 0
-00001 -00261 0
00001 00262 0
-00001 -00262 0
00001 00263 0
-00001 -00263 0
00001 00264 0
-00001 -00264 0
00001 00265 0
-00001 -00265 0
00001 00266 0
-00001 -00266 0
00001 00267 0
-00001 -00267 0
00001 00268 0
-00001 -00268 0
00001 00269 0
-00001 -00269 0
00001 00270 0
-00001 -00270 0
00001 00271 0
-00001 -00271 0
00001 00272 0
-00001 -00272 0
00001 00273 0
-00001 -00273 0
00001 00274 0
-00001 -00274 0
00001 00275 0
-00001 -00275 0
00001 00276 0
-00001 -00276 0
00001 00277 0
-00001 -00277 0
00001 00278 0
-00001 -00278 0
00001 00279 0
-00001 -00279 0
00001 00280 0
-00001 -00280 0
00001 00281 0
-00001 -00281 0
00001 00282 0
-00001 -00282 0
00001 00283 0
-00001 -00283 0
00001 00284 0
-00001 -00284 0
00001 00285 0
-00001 -00285 0
00001 00286 0
-00001 -00286 0
00001 00287 0
-00001 -00287 0
00001 00288 0
-00001 -00288 0
00001 00289 0
-00001 -00289 0
00001 00290 0
-00001 -00290 0
00001 00291 0
-00001 -00291 0
00001 00292 0
-00001 -00292 0
00001 00293 0
-00001 -00293 0
00001 00294 0
-00001 -00294 0
00001 00295 0
-00001 -00295 0
00001 00296 0
-00001 -00296 0
00001 00297 0
-00001 -00297 0
00001 00298 0
-00001 -00298 0
00001 00299 0
-00001 -00299 0
00001 00300 0
-00001 -00300 0
00001 00301 0
-00001 -00301 0
00001 00302 0
-00001 -00302 0
00001 00303 0
-00001 -00303 0
00001 00304 0
-00001 -00304 0
00001 00305 0
-00001 -00305 0
00001 00306 0
-00001 -00306 0
00001 00307 0
-00001 -00307 0
00001 00308 0
-00001 -00308 0
00001 00309 0
-00001 -00309 0
00001 00310 0
-00001 -00310 0
00001 00311 0
-00001 -00311 0
00001 00312 0
-00001 -00312 0
00001 00313 0
-00001 -00313 0
00001 00314 0
-00001 -00314 0
00001 00315 0
-00001 -00315 0
00001 00316 0
-00001 -00316 0
00001 00317 0
-00001 -00317 0
00001 00318 0
-00001 -00318 0
00001 00319 0
-00001 -00319 0
00001 00320 0
-00001 -00320 0
00001 00321 0
-00001 -00321 0
00001 00322 0
-00001 -00322 0
00001 00323 0
-00001 -00323 0
00001 00324 0
-00001 -00324 0
00001 00325 0
-00001 -00325 0
00001 00326 0
-00001 -00326 0
00001 00327 0
-00001 -00327 0
00001 00328 0
-00001 -00328 0
00001 00329 0
-00001 -00329 0
00001 00330 0
-00001 -00330 0
00001 00331 0
-00001 -00331 0
00001 00332 0
-00001 -00332 0
00001 00333 0
-00001 -00333 0
00001 00334 0
-00001 -00334 0
00001 00335 0
-00001 -00335 0
00001 00336 0
-00001 -00336 0
00001 00337 0
-00001 -00337 0
00001 00338 0
-00001 -00338 0
00001 00339 0
-00001 -00339 0
00001 00340 0
-00001 -00340 0
00001 00341 0
-00001 -00341 0
00001 00342 0
-00001 -00342 0
00001 00343 0
-00001 -00343 0
00001 00344 0
-00001 -00344 0
00001 00345 0
-00001 -00345 0
00001 00346 0
-00001 -00346 0
00001 00347 0
-00001 -00347 0
00001 00348 0
-00001 -00348 0
00001 00349 0
-00001 -00349 0
00001 00350 0
-00001 -00350 0
00001 00351 0
-00001 -00351 0
00001 00352 0
-00001 -00352 0
00001 00353 0
-00001 -00353 0
00001 00354 0
-00001 -00354 0
00001 00355 0
-00001 -00355 0
00001 00356 0
-00001 -00356 0
00001 00357 0
-00001 -00357 0
00001 00358 0
-00001 -00358 0
00001 00359 0
-00001 -00359 0
00001 00360 0
-00001 -00360 0
00001 00361 0
-00001 -00361 0
00001 00362 0
-00001 -00362 0
00001 00363 0
-00001 -00363 0
00001 00364 0
-00001 -00364 0
00001 00365 0
-00001 -00365 0
00001 00366 0
-00001 -00366 0
00001 00367 0
-00001 -00367 0
00001 00368 0
-00001 -00368 0
00001 00369 0
-00001 -00369 0
00001 00370 0
-00001 -00370 0
00001 00371 0
-00001 -00371 0
00001 00372 0
-00001 -00372 0
00001 00373 0
-00001 -00373 0
00001 00374 0
-00001 -00374 0
00001 00375 0
-00001 -00375 0
00001 00376 0
-00001 -00376 0
00001 00377 0
-00001 -00377 0
00001 00378 0
-00001 -00378 0
00001 00379 0
-00001 -00379 0
00001 00380 0
-00001 -00380 0
00001 00381 0
-00001 -00381 0
00001 00382 0
-00001 -00382 0
00001 00383 0
-00001 -00383 0
00001 00384 0
-00001 -00384 0
00001 00385 0
-00001 -00385 0
00001 00386 0
-00001 -00386 0
00001 00387 0
-00001 -00387 0
00001 00388 0
-00001 -00388 0
00001 00389 0
-00001 -00389 0
00001 00390 0
-00001 -00390 0
00001 00391 0
-00001 -00391 0
00001 00392 0
-00001 -00392 0
00001 00393 0
-00001 -00393 0
00001 00394 0
-00001 -00394 0
00001 00395 0
-00001 -00395 0
00001 00396 0
-00001 -00396 0
00001 00397 0
-00001 -00397 0
00001 00398 0
-00001 -00398 0
00001 00399 0
-00001 -00399 0
00001 00400 0
-00001 -00400 0
00001 00401 0
-00001 -00401 0
00001 00402 0
-00001 -00402 0
00001 00403 0
-00001 -00403 0
00001 00404 0
-00001 -00404 0
00001 00405 0
-00001 -00405 0
00001 00406 0
-00001 -00406 0
00001 00407 0
-00001 -00407 0
00001 00408 0
-00001 -00408 0
00001 00409 0
-00001 -00409 0
00001 00410 0
-00001 -00410 0
00001 00411 0
-00001 -00411 0
00001 00412 0
-00001 -00412 0
00001 00413 0
-00001 -00413 0
00001 00414 0
-00001 -00414 0
00001 00415 0
-00001 -00415 0
00001 00416 0
-00001 -00416 0
00001 00417 0
-00001 -00417 0
00001 00418 0
-00001 -00418 0
00001 00419 0
-00001 -00419 0
00001 00420 0
-00001 -00420 0
00001 00421 0
-00001 -00421 0
00001 00422 0
-00001 -00422 0
00001 00423 0
-00001 -00423 0
00001 00424 0
-00001 -00424 0
00001 00425 0
-00001 -00425 0
00001 00426 0
-00001 -00426 0
00001 00427 0
-00001 -00427 0
00001 00428 0
-00001 -00428 0
00001 00429 0
-00001 -00429 0
00001 00430 0
-00001 -00430 0
00001 00431 0
-00001 -00431 0
00001 00432 0
-00001 -00432 0
00001 00433 0
-00001 -00433 0
00001 00434 0
-00001 -00434 0
00001 00435 0
-00001 -00435 0
00001 00436 0
-00001 -00436 0
00001 00437 0
-00001 -00437 0
00001 00438 0
-00001 -00438 0
00001 00439 0
-00001 -00439 0
00001 00440 0
-00001 -00440 0
00001 00441 0
-00001 -00441 0
00001 00442 0
-00001 -00442 0
00001 00443 0
-00001 -00443 0
00001 00444 0
-00001 -00444 0
00001 00445 0
-00001 -00445 0
00001 00446 0
-00001 -00446 0
00001 00447 0
-00001 -00447 0
00001 00448 0
-00001 -00448 0
00001 00449 0
-00001 -00449 0
00001 00450 0
-00001 -00450 0
00001 00451 0
-00001 -00451 0
00001 00452 0
-00001 -00452 0
00001 00453 0
-00001 -00453 0
00001 00454 0
-00001 -00454 0
00001 00455 0
-00001 -00455 0
00001 00456 0
-00001 -00456 0
00001 00457 0
-00001 -00457 0
00001 00458 0
-00001 -00458 0
00001 00459 0
-00001 -00459 0
00001 00460 0
-00001 -00460 0
00001 00461 0
-00001 -00461 0
00001 00462 0
-00001 -00462 0
00001 00463 0
-00001 -00463 0
00001 00464 0
-00001 -00464 0
00001 00465 0
-00001 -00465 0
00001 00466 0
-00001 -00466 0
00001 00467 0
-00001 -00467 0
00001 00468 0
-00001 -00468 0
00001 00469 0
-00001 -00469 0
00001 00470 0
-00001 -00470 0
00001 00471 0
-00001 -00471 0
00001 00472 0
-00001 -00472 0
00001 00473 0
-00001 -00473 0
00001 00474 0
-00001 -00474 0
00001 00475 0
-00001 -00475 0
00001 00476 0
-00001 -00476 0
00001 00477 0
-00001 -00477 0
00001 00478 0
-00001 -00478 0
00001 00479 0
-00001 -00479 0
00001 00480 0
-00001 -00480 0
00001 00481 0
-00001 -00481 0
00001 00482 0
-00001 -00482 0
00001 00483 0
-00001 -00483 0
00001 00484 0
-00001 -00484 0
00001 00485 0
-00001 -00485 0
00001 00486 0
-00001 -00486 0
00001 00487 0
-00001 -00487 0
00001 00488 0
-00001 -00488 0
00001 00489 0
-00001 -00489 0
00001 00490 0
-00001 -00490 0
00001 00491 0
-00001 -00491 0
00001 00492 0
-00001 -00492 0
00001 00493 0
-00001 -00493 0
00001 00494 0
-00001 -00494 0
00001 00495 0
-00001 -00495 0
00001 00496 0
-00001 -00496 0
00001 00497 0
-00001 -00497 0
00001 00498 0
-00001 -00498 0
00001 00499 0
-00001 -00499 0
00001 00500 0
-00001 -00500 0
00001 00501 0
-00001 -00501 0
00001 00502 0
-00001 -00502 0
00001 00503 0
-00001 -00503 0
00001 00504 0
-00001 -00504 0
00001 00505 0
-00001 -00505 0
00001 00506 0
-00001 -00506 0
00001 00507 0
-00001 -00507 0
00001 00508 0
-00001 -00508 0
00001 00509 0
-00001 -00509 0
00001 00510 0
-00001 -00510 0
00001 00511 0
-00001 -00511 0
00001 00512 0
-00001 -00512 0
00001 00513 0
-00001 -00513 0
00001 00514 0
-00001 -00514 0
00001 00515 0
-00001 -00515 0
00001 00516 0
-00001 -00516 0
00001 00517 0
-00001 -00517 0
00001 00518 0
-00001 -00518 0
00001 00519 0
-00001 -00519 0
00001 00520 0
-00001 -00520 0
00001 00521 0
-00001 -00521 0
00001 00522 0
-00001 -00522 0
00001 00523 0
-00001 -00523 0
00001 00524 0
-00001 -00524 0
00001 00525 0
-00001 -00525 0
00001 00526 0
-00001 -00526 0
00001 00527 0
-00001 -00527 0
00001 00528 0
-00001 -00528 0
00001 00529 0
-00001 -00529 0
00001 00530 0
-00001 -00530 0
00001 00531 0
-00001 -00531 0
00001 00532 0
-00001 -00532 0
00001 00533 0
-00001 -00533 0
00001 00534 0
-00001 -00534 0
00001 00535 0
-00001 -00535 0
00001 00536 0
-00001 -00536 0
00001 00537 0
-00001 -00537 0
00001 00538 0
-00001 -00538 0
00001 00539 0
-00001 -00539 0
00001 00540 0
-00001 -00540 0
00001 00541 0
-00001 -00541 0
00001 00542 0
-00001 -00542 0
00001 00543 0
-00001 -00543 0
00001 00544 0
-00001 -00544 0
00001 00545 0
-00001 -00545 0
00001 00546 0
-00001 -00546 0
00001 00547 0
-00001 -00547 0
00001 00548 0
-00001 -00548 0
00001 00549 0
-00001 -00549 0
00001 00550 0
-00001 -00550 0
00001 00551 0
-00001 -00551 0
00001 00552 0
-00001 -00552 0
00001 00553 0
-00001 -00553 0
00001 00554 0
-00001 -00554 0
00001 00555 0
-00001 -00555 0
00001 00556 0
-00001 -00556 0
00001 00557 0
-00001 -00557 0
00001 00558 0
-00001 -00558 0
00001 00559 0
-00001 -00559 0
00001 00560 0
-00001 -00560 0
00001 00561 0
-00001 -00561 0
00001 00562 0
-00001 -00562 0
00001 00563 0
-00001 -00563 0
00001 00564 0
-00001 -00564 0
00001 00565 0
-00001 -00565 0
00001 00566 0
-00001 -00566 0
00001 00567 0
-00001 -00567 0
00001 00568 0
-00001 -00568 0
00001 00569 0
-00001 -00569 0
00001 00570 0
-00001 -00570 0
00001 00571 0
-00001 -00571 0
00001 00572 0
-00001 -00572 0
00001 00573 0
-00001 -00573 0
00001 00574 0
-00001 -00574 0
00001 00575 0
-00001 -00575 0
00001 00576 0
-00001 -00576 0
00001 00577 0
-00001 -00577 0
00001 00578 0
-00001 -00578 0
00001 00579 0
-00001 -00579 0
00001 00580 0
-00001 -00580 0
00001 00581 0
-00001 -00581 0
00001 00582 0
-00001 -00582 0
00001 00583 0
-00001 -00583 0
00001 00584 0
-00001 -00584 0
00001 00585 0
-00001 -00585 0
00001 00586 0
-00001 -00586 0
00001 00587 0
-00001 -00587 0
00001 00588 0
-00001 -00588 0
00001 00589 0
-00001 -00589 0
00001 00590 0
-00001 -00590 0
00001 00591 0
-00001 -00591 0
00001 00592 0
-00001 -00592 0
00001 00593 0
-00001 -00593 0
00001 00594 0
-00001 -00594 0
00001 00595 0
-00001 -00595 0
00001 00596 0
-00001 -00596 0
00001 00597 0
-00001 -00597 0
00001 00598 0
-00001 -00598 0
00001 00599 0
-00001 -00599 0
00001 00600 0
-00001 -00600 0
00001 00601 0
-00001 -00601 0
00001 00602 0
-00001 -00602 0
00001 00603 0
-00001 -00603 0
00001 00604 0
-00001 -00604 0
00001 00605 0
-00001 -00605 0
00001 00606 0
-00001 -00606 0
00001 00607 0
-00001 -00607 0
00001 00608 0
-00001 -00608 0
00001 00609 0
-00001 -00609 0
00001 00610 0
-00001 -00610 0
00001 00611 0
-00001 -00611 0
00001 00612 0
-00001 -00612 0
00001 00613 0
-00001 -00613 0
00001 00614 0
-00001 -00614 0
00001 00615 0
-00001 -00615 0
00001 00616 0
-00001 -00616 0
00001 00617 0
-00001 -00617 0
00001 00618 0
-00001 -00618 0
00001 00619 0
-00001 -00619 0
00001 00620 0
-00001 -00620 0
00001 00621 0
-00001 -00621 0
00001 00622 0
-00001 -00622 0
00001 00623 0
-00001 -00623 0
00001 00624 0
-00001 -00624 0
00001 00625 0
-00001 -00625 0
00001 00626 0
-00001 -00626 0
00001 00627 0
-00001 -00627 0
00001 00628 0
-00001 -00628 0
00001 00629 0
-00001 -00629 0
00001 00630 0
-00001 -00630 0
00001 00631 0
-00001 -00631 0
00001 00632 0
-00001 -00632 0
00001 00633 0
-00001 -00633 0
00001 00634 0
-00001 -00634 0
00001 00635 0
-00001 -00635 0
00001 00636 0
-00001 -00636 0
00001 00637 0
-00001 -00637 0
00001 00638 0
-00001 -00638 0
00001 00639 0
-00001 -00639 0
00001 00640 0
-00001 -00640 0
00001 00641 0
-00001 -00641 0
00001 00642 0
-00001 -00642 0
00001 00643 0
-00001 -00643 0
00001 00644 0
-00001 -00644 0
00001 00645 0
-00001 -00645 0
00001 00646 0
-00001 -00646 0
00001 00647 0
-00001 -00647 0
00001 00648 0
-00001 -00648 0
00001 00649 0
-00001 -00649 0
00001 00650 0
-00001 -00650 0
00001 00651 0
-00001 -00651 0
00001 00652 0
-00001 -00652 0
00001 00653 0
-00001 -00653 0
00001 00654 0
-00001 -00654 0
00001 00655 0
-00001 -00655 0
00001 00656 0
-00001 -00656 0
00001 00657 0
-00001 -00657 0
00001 00658 0
-00001 -00658 0
00001 00659 0
-00001 -00659 0
00001 00660 0
-00001 -00660 0
00001 00661 0
-00001 -00661 0
00001 00662 0
-00001 -00662 0
00001 00663 0
-00001 -00663 0
00001 00664 0
-00001 -00664 0
00001 00665 0
-00001 -00665 0
00001 00666 0
-00001 -00666 0
00001 00667 0
-00001 -00667 0
00001 00668 0
-00001 -00668 0
00001 00669 0
-00001 -00669 0
00001 00670 0
-00001 -00670 0
00001 00671 0
-00001 -00671 0
00001 00672 0
-00001 -00672 0
00001 00673 0
-00001 -00673 0
00001 00674 0
-00001 -00674 0
00001 00675 0
-00001 -00675 0
00001 00676 0
-00001 -00676 0
00001 00677 0
-00001 -00677 0
00001 00678 0
-00001 -00678 0
00001 00679 0
-00001 -00679 0
00001 00680 0
-00001 -00680 0
00001 00681 0
-00001 -00681 0
00001 00682 0
-00001 -00682 0
00001 00683 0
-00001 -00683 0
00001 00684 0
-00001 -00684 0
00001 00685 0
-00001 -00685 0
00001 00686 0
-00001 -00686 0
00001 00687 0
-00001 -00687 0
00001 00688 0
-00001 -00688 0
00001 00689 0
-00001 -00689 0
00001 00690 0
-00001 -00690 0
00001 00691 0
-00001 -00691 0
00001 00692 0
-00001 -00692 0
00001 00693 0
-00001 -00693 0
00001 00694 0
-00001 -00694 0
00001 00695 0
-00001 -00695 0
00001 00696 0
-00001 -00696 0
00001 00697 0
-00001 -00697 0
00001 00698 0
-00001 -00698 0
00001 00699 0
-00001 -00699 0
00001 00700 0
-00001 -00700 0
00001 00701 0
-00001 -00701 0
00001 00702 0
-00001 -00702 0
00001 00703 0
-00001 -00703 0
00001 00704 0
-00001 -00704 0
00001 00705 0
-00001 -00705 0
00001 00706 0
-00001 -00706 0
00001 00707 0
-00001 -00707 0
00001 00708 0
-00001 -00708 0
00001 00709 0
-00001 -00709 0
00001 00710 0
-00001 -00710 0
00001 00711 0
-00001 -00711 0
00001 00712 0
-00001 -00712 0
00001 00713 0
-00001 -00713 0
00001 00714 0
-00001 -00714 0
00001 00715 0
-00001 -00715 0
00001 00716 0
-00001 -00716 0
00001 00717 0
-00001 -00717 0
00001 00718 0
-00001 -00718 0
00001 00719 0
-00001 -00719 0
00001 00720 0
-00001 -00720 0
00001 00721 0
-00001 -00721 0
00001 00722 0
-00001 -00722 0
00001 00723 0
-00001 -00723 0
00001 00724 0
-00001 -00724 0
00001 00725 0
-00001 -00725 0
00001 00726 0
-00001 -00726 0
00001 00727 0
-00001 -00727 0
00001 00728 0
-00001 -00728 0
00001 00729 0
-00001 -00729 0
00001 00730 0
-00001 -00730 0
00001 00731 0
-00001 -00731 0
00001 00732 0
-00001 -00732 0
00001 00733 0
-00001 -00733 0
00001 00734 0
-00001 -00734 0
00001 00735 0
-00001 -00735 0
00001 00736 0
-00001 -00736 0
00001 00737 0
-00001 -00737 0
00001 00738 0
-00001 -00738 0
00001 00739 0
-00001 -00739 0
00001 00740 0
-00001 -00740 0
00001 00741 0
-00001 -00741 0
00001 00742 0
-00001 -00742 0
00001 00743 0
-00001 -00743 0
00001 00744 0
-00001 -00744 0
00001 00745 0
-00001 -00745 0
00001 00746 0
-00001 -00746 0
00001 00747 0
-00001 -00747 0
00001 00748 0
-00001 -00748 0
00001 00749 0
-00001 -00749 0
00001 00750 0
-00001 -00750 0
00001 00751 0
-00001 -00751 0
00001 00752 0
-00001 -00752 0
00001 00753 0
-00001 -00753 0
00001 00754 0
-00001 -00754 0
00001 00755 0
-00001 -00755 0
00001 00756 0
-00001 -00756 0
00001 00757 0
-00001 -00757 0
00001 00758 0
-00001 -00758 0
00001 00759 0
-00001 -00759 0
00001 00760 0
-00001 -00760 0
00001 00761 0
-00001 -00761 0
00001 00762 0
-00001 -00762 0
00001 00763 0
-00001 -00763 0
00001 00764 0
-00001 -00764 0
00001 00765 0
-00001 -00765 0
00001 00766 0
-00001 -00766 0
00001 00767 0
-00001 -00767 0
00001 00768 0
-00001 -00768 0
00001 00769 0
-00001 -00769 0
00001 00770 0
-00001 -00770 0
00001 00771 0
-00001 -00771 0
00001 00772 0
-00001 -00772 0
00001 00773 0
-00001 -00773 0
00001 00774 0
-00001 -00774 0
00001 00775 0
-00001 -00775 0
00001 00776 0
-00001 -00776 0
00001 00777 0
-00001 -00777 0
00001 00778 0
-00001 -00778 0
00001 00779 0
-00001 -00779 0
00001 00780 0
-00001 -00780 0
00001 00781 0
-00001 -00781 0
00001 00782 0
-00001 -00782 0
00001 00783 0
-00001 -00783 0
00001 00784 0
-00001 -00784 0
00001 00785 0
-00001 -00785 0
00001 00786 0
-00001 -00786 0
00001 00787 0
-00001 -00787 0
00001 00788 0
-00001 -00788 0
00001 00789 0
-00001 -00789 0
00001 00790 0
-00001 -00790 0
00001 00791 0
-00001 -00791 0
00001 00792 0
-00001 -00792 0
00001 00793 0
-00001 -00793 0
00001 00794 0
-00001 -00794 0
00001 00795 0
-00001 -00795 0
00001 00796 0
-00001 -00796 0
00001 00797 0
-00001 -00797 0
00001 00798 0
-00001 -00798 0
00001 00799 0
-00001 -00799 0
00001 00800 0
-00001 -00800 0
00001 00801 0
-00001 -00801 0
00001 00802 0
-00001 -00802 0
00001 00803 0
-00001 -00803 0
00001 00804 0
-00001 -00804 0
00001 00805 0
-00001 -00805 0
00001 00806 0
-00001 -00806 0
00001 00807 0
-00001 -00807 0
00001 00808 0
-00001 -00808 0
00001 00809 0
-00001 -00809 0
00001 00810 0
-00001 -00810 0
00001 00811 0
-00001 -00811 0
00001 00812 0
-00001 -00812 0
00001 00813 0
-00001 -00813 0
00001 00814 0
-00001 -00814 0
00001 00815 0
-00001 -00815 0
00001 00816 0
-00001 -00816 0
00001 00817 0
-00001 -00817 0
00001 00818 0
-00001 -00818 0
00001 00819 0
-00001 -00819 0
00001 00820 0
-00001 -00820 0
00001 00821 0
-00001 -00821 0
00001 00822 0
-00001 -00822 0
00001 00823 0
-00001 -00823 0
00001 00824 0
-00001 -00824 0
00001 00825 0
-00001 -00825 0
00001 00826 0
-00001 -00826 0
00001 00827 0
-00001 -00827 0
00001 00828 0
-00001 -00828 0
00001 00829 0
-00001 -00829 0
00001 00830 0
-00001 -00830 0
00001 00831 0
-00001 -00831 0
00001 00832 0
-00001 -00832 0
00001 00833 0
-00001 -00833 0
00001 00834 0
-00001 -00834 0
00001 00835 0
-00001 -00835 0
00001 00836 0
-00001 -00836 0
00001 00837 0
-00001 -00837 0
00001 00838 0
-00001 -00838 0
00001 00839 0
-00001 -00839 0
00001 00840 0
-00001 -00840 0
00001 00841 0
-00001 -00841 0
00001 00842 0
-00001 -00842 0
00001 00843 0
-00001 -00843 0
00001 00844 0
-00001 -00844 0
00001 00845 0
-00001 -00845 0
00001 00846 0
-00001 -00846 0
00001 00847 0
-00001 -00847 0
00001 00848 0
-00001 -00848 0
00001 00849 0
-00001 -00849 0
00001 00850 0
-00001 -00850 0
00001 00851 0
-00001 -00851 0
00001 00852 0
-00001 -00852 0
00001 00853 0
-00001 -00853 0
00001 00854 0
-00001 -00854 0
00001 00855 0
-00001 -00855 0
00001 00856 0
-00001 -00856 0
00001 00857 0
-00001 -00857 0
00001 00858 0
-00001 -00858 0
00001 00859 0
-00001 -00859 0
00001 00860 0
-00001 -00860 0
00001 00861 0
-00001 -00861 0
00001 00862 0
-00001 -00862 0
00001 00863 0
-00001 -00863 0
00001 00864 0
-00001 -00864 0
00001 00865 0
-00001 -00865 0
00001 00866 0
-00001 -00866 0
00001 00867 0
-00001 -00867 0
00001 00868 0
-00001 -00868 0
00001 00869 0
-00001 -00869 0
00001 00870 0
-00001 -00870 0
00001 00871 0
-00001 -00871 0
00001 00872 0
-00001 -00872 0
00001 00873 0
-00001 -00873 0
00001 00874 0
-00001 -00874 0
00001 00875 0
-00001 -00875 0
00001 00876 0
-00001 -00876 0
00001 00877 0
-00001 -00877 0
00001 00878 0
-00001 -00878 0
00001 00879 0
-00001 -00879 0
00001 00880 0
-00001 -00880 0
00001 00881 0
-00001 -00881 0
00001 00882 0
-00001 -00882 0
00001 00883 0
-00001 -00883 0
00001 00884 0
-00001 -00884 0
00001 00885 0
-00001 -00885 0
00001 00886 0
-00001 -00886 0
00001 00887 0
-00001 -00887 0
00001 00888 0
-00001 -00888 0
00001 00889 0
-00001 -00889 0
00001 00890 0
-00001 -00890 0
00001 00891 0
-00001 -00891 0
00001 00892 0
-00001 -00892 0
00001 00893 0
-00001 -00893 0
00001 00894 0
-00001 -00894 0
00001 00895 0
-00001 -00895 0
00001 00896 0
-00001 -00896 0
00001 00897 0
-00001 -00897 0
00001 00898 0
-00001 -00898 0
00001 00899 0
-00001 -00899 0
00001 00900 0
-00001 -00900 0
00001 00901 0
-00001 -00901 0
00001 00902 0
-00001 -00902 0
00001 00903 0
-00001 -00903 0
00001 00904 0
-00001 -00904 0
00001 00905 0
-00001 -00905 0
00001 00906 0
-00001 -00906 0
00001 00907 0
-00001 -00907 0
00001 00908 0
-00001 -00908 0
00001 00909 0
-00001 -00909 0
00001 00910 0
-00001 -00910 0
00001 00911 0
-00001 -00911 0
00001 00912 0
-00001 -00912 0
00001 00913 0
-00001 -00913 0
00001 00914 0
-00001 -00914 0
00001 00915 0
-00001 -00915 0
00001 00916 0
-00001 -00916 0
00001 00917 0
-00001 -00917 0
00001 00918 0
-00001 -00918 0
00001 00919 0
-00001 -00919 0
00001 00920 0
-00001 -00920 0
00001 00921 0
-00001 -00921 0
00001 00922 0
-00001 -00922 0
00001 00923 0
-00001 -00923 0
00001 00924 0
-00001 -00924 0
00001 00925 0
-00001 -00925 0
00001 00926 0
-00001 -00926 0
00001 00927 0
-00001 -00927 0
00001 00928 0
-00001 -00928 0
00001 00929 0
-00001 -00929 0
00001 00930 0
-00001 -00930 0
00001 00931 0
-00001 -00931 0
00001 00932 0
-00001 -00932 0
00001 00933 0
-00001 -00933 0
00001 00934 0
-00001 -00934 0
00001 00935 0
-00001 -00935 0
00001 00936 0
-00001 -00936 0
00001 00937 0
-00001 -00937 0
00001 00938 0
-00001 -00938 0
00001 00939 0
-00001 -00939 0
00001 00940 0
-00001 -00940 0
00001 00941 0
-00001 -00941 0
00001 00942 0
-00001 -00942 0
00001 00943 0
-00001 -00943 0
00001 00944 0
-00001 -00944 0
00001 00945 0
-00001 -00945 0
00001 00946 0
-00001 -00946 0
00001 00947 0
-00001 -00947 0
00001 00948 0
-00001 -00948 0
00001 00949 0
-00001 -00949 0
00001 00950 0
-00001 -00950 0
00001 00951 0
-00001 -00951 0
00001 00952 0
-00001 -00952 0
00001 00953 0
-00001 -00953 0
00001 00954 0
-00001 -00954 0
00001 00955 0
-00001 -00955 0
00001 00956 0
-00001 -00956 0
00001 00957 0
-00001 -00957 0
00001 00958 0
-00001 -00958 0
00001 00959 0
-00001 -00959 0
00001 00960 0
-00001 -00960 0
00001 00961 0
-00001 -00961 0
00001 00962 0
-00001 -00962 0
00001 00963 0
-00001 -00963 0
00001 00964 0
-00001 -00964 0
00001 00965 0
-00001 -00965 0
00001 00966 0
-00001 -00966 0
00001 00967 0
-00001 -00967 0
00001 00968 0
-00001 -00968 0
00001 00969 0
-00001 -00969 0
00001 00970 0
-00001 -00970 0
00001 00971 0
-00001 -00971 0
00001 00972 0
-00001 -00972 0
00001 00973 0
-00001 -00973 0
00001 00974 0
-00001 -00974 0
00001 00975 0
-00001 -00975 0
00001 00976 0
-00001 -00976 0
00001 00977 0
-00001 -00977 0
00001 00978 0
-00001 -00978 0
00001 00979 0
-00001 -00979 0
00001 00980 0
-00001 -00980 0
00001 00981 0
-00001 -00981 0
00001 00982 0
-00001 -00982 0
00001 00983 0
-00001 -00983 0
00001 00984 0
-00001 -00984 0
00001 00985 0
-00001 -00985 0
00001 00986 0
-00001 -00986 0
00001 00987 0
-00001 -00987 0
00001 00988 0
-00001 -00988 0
00001 00989 0
-00001 -00989 0
00001 00990 0
-00001 -00990 0
00001 00991 0
-00001 -00991 0
00001 00992 0
-00001 -00992 0
00001 00993 0
-00001 -00993 0
00001 00994 0
-00001 -00994 0
00001 00995 0
-00001 -00995 0
00001 00996 0
-00001 -00996 0
00001 00997 0
-00001 -00997 0
00001 00998 0
-00001 -00998 0
00001 00999 0
-00001 -00999 0
00001 01000 0
-00001 -01000 0
